c strEdges: 125  randomEdges: 504 
c degrees:  1  2 
c girth: Inf max: -43.604516  
c Hgirth mixed MAXCUT instance
c generated from an undirected graph
c to solve unweighted MaxCut
p cnf 140 1258
140 6 0
-140 -6 0
140 112 0
-140 -112 0
7 10 0
-7 -10 0
7 105 0
-7 -105 0
76 105 0
-76 -105 0
76 101 0
-76 -101 0
60 87 0
-60 -87 0
60 117 0
-60 -117 0
29 98 0
-29 -98 0
57 135 0
-57 -135 0
57 130 0
-57 -130 0
1 31 0
-1 -31 0
1 120 0
-1 -120 0
46 138 0
-46 -138 0
46 55 0
-46 -55 0
43 82 0
-43 -82 0
43 123 0
-43 -123 0
70 36 0
-70 -36 0
70 10 0
-70 -10 0
128 34 0
-128 -34 0
128 23 0
-128 -23 0
80 69 0
-80 -69 0
5 8 0
-5 -8 0
5 91 0
-5 -91 0
11 125 0
-11 -125 0
11 59 0
-11 -59 0
56 129 0
-56 -129 0
56 63 0
-56 -63 0
86 41 0
-86 -41 0
86 103 0
-86 -103 0
94 47 0
-94 -47 0
94 137 0
-94 -137 0
84 123 0
-84 -123 0
84 42 0
-84 -42 0
30 12 0
-30 -12 0
30 8 0
-30 -8 0
18 130 0
-18 -130 0
114 59 0
-114 -59 0
118 40 0
-118 -40 0
118 111 0
-118 -111 0
58 100 0
-58 -100 0
58 81 0
-58 -81 0
24 55 0
-24 -55 0
24 98 0
-24 -98 0
27 131 0
-27 -131 0
27 92 0
-27 -92 0
119 101 0
-119 -101 0
116 110 0
-116 -110 0
116 99 0
-116 -99 0
14 99 0
-14 -99 0
14 61 0
-14 -61 0
13 45 0
-13 -45 0
16 103 0
-16 -103 0
16 129 0
-16 -129 0
96 85 0
-96 -85 0
65 23 0
-65 -23 0
65 12 0
-65 -12 0
139 133 0
-139 -133 0
139 126 0
-139 -126 0
35 126 0
-35 -126 0
28 137 0
-28 -137 0
28 77 0
-28 -77 0
108 74 0
-108 -74 0
108 110 0
-108 -110 0
37 111 0
-37 -111 0
37 54 0
-37 -54 0
90 44 0
-90 -44 0
90 36 0
-90 -36 0
25 48 0
-25 -48 0
25 136 0
-25 -136 0
66 97 0
-66 -97 0
66 62 0
-66 -62 0
132 38 0
-132 -38 0
132 125 0
-132 -125 0
64 21 0
-64 -21 0
26 83 0
-26 -83 0
26 34 0
-26 -34 0
72 122 0
-72 -122 0
72 97 0
-72 -97 0
32 49 0
-32 -49 0
32 38 0
-32 -38 0
95 113 0
-95 -113 0
95 83 0
-95 -83 0
50 15 0
-50 -15 0
50 93 0
-50 -93 0
51 17 0
-51 -17 0
75 78 0
-75 -78 0
75 41 0
-75 -41 0
115 117 0
-115 -117 0
115 88 0
-115 -88 0
109 68 0
-109 -68 0
109 17 0
-109 -17 0
107 42 0
-107 -42 0
107 67 0
-107 -67 0
19 71 0
-19 -71 0
19 74 0
-19 -74 0
33 104 0
-33 -104 0
39 93 0
-39 -93 0
39 21 0
-39 -21 0
9 91 0
-9 -91 0
9 6 0
-9 -6 0
2 120 0
-2 -120 0
2 69 0
-2 -69 0
121 61 0
-121 -61 0
134 102 0
-134 -102 0
53 112 0
-53 -112 0
53 87 0
-53 -87 0
20 67 0
-20 -67 0
3 136 0
-3 -136 0
3 131 0
-3 -131 0
22 88 0
-22 -88 0
4 63 0
-4 -63 0
4 73 0
-4 -73 0
106 77 0
-106 -77 0
106 48 0
-106 -48 0
89 81 0
-89 -81 0
89 138 0
-89 -138 0
124 62 0
-124 -62 0
124 113 0
-124 -113 0
52 92 0
-52 -92 0
52 40 0
-52 -40 0
79 73 0
-79 -73 0
79 68 0
-79 -68 0
127 54 0
-127 -54 0
127 133 0
-127 -133 0
110 111 0
-110 -111 0
140 46 0
-140 -46 0
79 91 0
-79 -91 0
37 75 0
-37 -75 0
33 120 0
-33 -120 0
3 104 0
-3 -104 0
98 88 0
-98 -88 0
90 105 0
-90 -105 0
13 54 0
-13 -54 0
139 111 0
-139 -111 0
41 45 0
-41 -45 0
30 96 0
-30 -96 0
35 85 0
-35 -85 0
25 74 0
-25 -74 0
95 67 0
-95 -67 0
30 2 0
-30 -2 0
35 64 0
-35 -64 0
95 91 0
-95 -91 0
4 137 0
-4 -137 0
43 132 0
-43 -132 0
70 23 0
-70 -23 0
96 120 0
-96 -120 0
8 97 0
-8 -97 0
98 48 0
-98 -48 0
82 97 0
-82 -97 0
125 126 0
-125 -126 0
84 75 0
-84 -75 0
114 77 0
-114 -77 0
33 77 0
-33 -77 0
60 81 0
-60 -81 0
69 120 0
-69 -120 0
46 118 0
-46 -118 0
133 63 0
-133 -63 0
1 138 0
-1 -138 0
106 40 0
-106 -40 0
1 124 0
-1 -124 0
45 42 0
-45 -42 0
139 40 0
-139 -40 0
46 124 0
-46 -124 0
87 101 0
-87 -101 0
28 54 0
-28 -54 0
50 110 0
-50 -110 0
10 138 0
-10 -138 0
52 130 0
-52 -130 0
139 45 0
-139 -45 0
7 30 0
-7 -30 0
124 15 0
-124 -15 0
138 91 0
-138 -91 0
111 73 0
-111 -73 0
135 136 0
-135 -136 0
60 67 0
-60 -67 0
29 39 0
-29 -39 0
118 124 0
-118 -124 0
118 115 0
-118 -115 0
30 105 0
-30 -105 0
98 135 0
-98 -135 0
76 30 0
-76 -30 0
134 79 0
-134 -79 0
7 55 0
-7 -55 0
9 124 0
-9 -124 0
23 91 0
-23 -91 0
1 101 0
-1 -101 0
4 40 0
-4 -40 0
115 97 0
-115 -97 0
133 71 0
-133 -71 0
44 104 0
-44 -104 0
52 81 0
-52 -81 0
131 120 0
-131 -120 0
96 100 0
-96 -100 0
11 30 0
-11 -30 0
20 40 0
-20 -40 0
86 58 0
-86 -58 0
71 120 0
-71 -120 0
128 113 0
-128 -113 0
123 61 0
-123 -61 0
87 49 0
-87 -49 0
94 79 0
-94 -79 0
132 92 0
-132 -92 0
1 122 0
-1 -122 0
59 49 0
-59 -49 0
35 97 0
-35 -97 0
32 12 0
-32 -12 0
140 63 0
-140 -63 0
103 113 0
-103 -113 0
72 44 0
-72 -44 0
60 10 0
-60 -10 0
65 79 0
-65 -79 0
100 48 0
-100 -48 0
44 54 0
-44 -54 0
39 89 0
-39 -89 0
70 42 0
-70 -42 0
127 45 0
-127 -45 0
36 71 0
-36 -71 0
111 44 0
-111 -44 0
35 100 0
-35 -100 0
76 122 0
-76 -122 0
106 85 0
-106 -85 0
108 33 0
-108 -33 0
82 61 0
-82 -61 0
35 4 0
-35 -4 0
70 130 0
-70 -130 0
51 19 0
-51 -19 0
107 112 0
-107 -112 0
40 85 0
-40 -85 0
108 54 0
-108 -54 0
80 42 0
-80 -42 0
59 21 0
-59 -21 0
43 137 0
-43 -137 0
55 113 0
-55 -113 0
55 21 0
-55 -21 0
115 23 0
-115 -23 0
47 123 0
-47 -123 0
76 27 0
-76 -27 0
35 130 0
-35 -130 0
14 45 0
-14 -45 0
56 66 0
-56 -66 0
116 61 0
-116 -61 0
95 104 0
-95 -104 0
76 71 0
-76 -71 0
109 36 0
-109 -36 0
48 104 0
-48 -104 0
76 61 0
-76 -61 0
32 59 0
-32 -59 0
69 83 0
-69 -83 0
16 28 0
-16 -28 0
16 17 0
-16 -17 0
69 126 0
-69 -126 0
76 131 0
-76 -131 0
118 116 0
-118 -116 0
46 26 0
-46 -26 0
7 16 0
-7 -16 0
44 49 0
-44 -49 0
17 104 0
-17 -104 0
7 70 0
-7 -70 0
52 136 0
-52 -136 0
34 45 0
-34 -45 0
37 78 0
-37 -78 0
94 2 0
-94 -2 0
52 71 0
-52 -71 0
27 85 0
-27 -85 0
60 65 0
-60 -65 0
14 74 0
-14 -74 0
55 67 0
-55 -67 0
70 132 0
-70 -132 0
26 71 0
-26 -71 0
2 87 0
-2 -87 0
140 62 0
-140 -62 0
6 47 0
-6 -47 0
95 23 0
-95 -23 0
28 72 0
-28 -72 0
12 38 0
-12 -38 0
115 40 0
-115 -40 0
96 138 0
-96 -138 0
87 45 0
-87 -45 0
139 47 0
-139 -47 0
46 126 0
-46 -126 0
86 9 0
-86 -9 0
127 113 0
-127 -113 0
56 27 0
-56 -27 0
16 42 0
-16 -42 0
109 19 0
-109 -19 0
94 58 0
-94 -58 0
87 54 0
-87 -54 0
48 68 0
-48 -68 0
140 136 0
-140 -136 0
29 81 0
-29 -81 0
35 115 0
-35 -115 0
137 77 0
-137 -77 0
84 126 0
-84 -126 0
82 133 0
-82 -133 0
65 54 0
-65 -54 0
23 63 0
-23 -63 0
90 2 0
-90 -2 0
71 73 0
-71 -73 0
10 131 0
-10 -131 0
121 120 0
-121 -120 0
65 47 0
-65 -47 0
30 38 0
-30 -38 0
76 44 0
-76 -44 0
68 120 0
-68 -120 0
82 93 0
-82 -93 0
33 47 0
-33 -47 0
140 74 0
-140 -74 0
15 63 0
-15 -63 0
86 89 0
-86 -89 0
53 103 0
-53 -103 0
105 131 0
-105 -131 0
109 12 0
-109 -12 0
53 61 0
-53 -61 0
50 39 0
-50 -39 0
80 5 0
-80 -5 0
63 62 0
-63 -62 0
74 63 0
-74 -63 0
80 14 0
-80 -14 0
101 122 0
-101 -122 0
41 49 0
-41 -49 0
36 100 0
-36 -100 0
107 78 0
-107 -78 0
24 96 0
-24 -96 0
87 113 0
-87 -113 0
118 126 0
-118 -126 0
19 120 0
-19 -120 0
32 2 0
-32 -2 0
100 126 0
-100 -126 0
11 12 0
-11 -12 0
84 28 0
-84 -28 0
32 124 0
-32 -124 0
118 100 0
-118 -100 0
13 101 0
-13 -101 0
128 94 0
-128 -94 0
31 62 0
-31 -62 0
32 103 0
-32 -103 0
115 130 0
-115 -130 0
14 102 0
-14 -102 0
87 137 0
-87 -137 0
34 83 0
-34 -83 0
51 20 0
-51 -20 0
31 34 0
-31 -34 0
120 102 0
-120 -102 0
101 120 0
-101 -120 0
7 61 0
-7 -61 0
130 113 0
-130 -113 0
46 25 0
-46 -25 0
109 129 0
-109 -129 0
103 74 0
-103 -74 0
116 17 0
-116 -17 0
27 102 0
-27 -102 0
84 81 0
-84 -81 0
84 19 0
-84 -19 0
110 104 0
-110 -104 0
25 44 0
-25 -44 0
4 99 0
-4 -99 0
66 125 0
-66 -125 0
80 117 0
-80 -117 0
66 3 0
-66 -3 0
115 79 0
-115 -79 0
18 134 0
-18 -134 0
98 138 0
-98 -138 0
43 95 0
-43 -95 0
123 112 0
-123 -112 0
108 42 0
-108 -42 0
118 66 0
-118 -66 0
23 44 0
-23 -44 0
101 111 0
-101 -111 0
134 101 0
-134 -101 0
107 40 0
-107 -40 0
1 128 0
-1 -128 0
107 106 0
-107 -106 0
129 99 0
-129 -99 0
30 22 0
-30 -22 0
30 93 0
-30 -93 0
103 77 0
-103 -77 0
118 71 0
-118 -71 0
115 4 0
-115 -4 0
14 26 0
-14 -26 0
5 109 0
-5 -109 0
109 99 0
-109 -99 0
79 67 0
-79 -67 0
90 122 0
-90 -122 0
106 129 0
-106 -129 0
129 117 0
-129 -117 0
46 20 0
-46 -20 0
116 139 0
-116 -139 0
13 41 0
-13 -41 0
87 110 0
-87 -110 0
3 122 0
-3 -122 0
24 117 0
-24 -117 0
10 93 0
-10 -93 0
58 54 0
-58 -54 0
94 33 0
-94 -33 0
116 129 0
-116 -129 0
57 3 0
-57 -3 0
33 103 0
-33 -103 0
58 55 0
-58 -55 0
98 83 0
-98 -83 0
14 20 0
-14 -20 0
105 99 0
-105 -99 0
110 122 0
-110 -122 0
45 112 0
-45 -112 0
8 81 0
-8 -81 0
118 130 0
-118 -130 0
28 44 0
-28 -44 0
84 25 0
-84 -25 0
22 82 0
-22 -82 0
128 36 0
-128 -36 0
98 120 0
-98 -120 0
109 92 0
-109 -92 0
79 113 0
-79 -113 0
114 125 0
-114 -125 0
51 102 0
-51 -102 0
115 42 0
-115 -42 0
116 79 0
-116 -79 0
14 91 0
-14 -91 0
96 74 0
-96 -74 0
57 54 0
-57 -54 0
7 137 0
-7 -137 0
140 37 0
-140 -37 0
29 69 0
-29 -69 0
30 104 0
-30 -104 0
33 44 0
-33 -44 0
28 38 0
-28 -38 0
126 81 0
-126 -81 0
35 137 0
-35 -137 0
119 92 0
-119 -92 0
52 44 0
-52 -44 0
24 49 0
-24 -49 0
12 48 0
-12 -48 0
139 73 0
-139 -73 0
25 6 0
-25 -6 0
27 87 0
-27 -87 0
59 100 0
-59 -100 0
98 34 0
-98 -34 0
7 19 0
-7 -19 0
9 36 0
-9 -36 0
33 135 0
-33 -135 0
125 59 0
-125 -59 0
132 2 0
-132 -2 0
109 6 0
-109 -6 0
107 103 0
-107 -103 0
34 55 0
-34 -55 0
13 130 0
-13 -130 0
129 104 0
-129 -104 0
109 98 0
-109 -98 0
16 107 0
-16 -107 0
94 83 0
-94 -83 0
128 102 0
-128 -102 0
41 103 0
-41 -103 0
52 23 0
-52 -23 0
7 91 0
-7 -91 0
131 77 0
-131 -77 0
140 117 0
-140 -117 0
28 101 0
-28 -101 0
38 73 0
-38 -73 0
10 8 0
-10 -8 0
39 129 0
-39 -129 0
29 62 0
-29 -62 0
37 125 0
-37 -125 0
19 125 0
-19 -125 0
46 13 0
-46 -13 0
64 73 0
-64 -73 0
22 100 0
-22 -100 0
120 77 0
-120 -77 0
10 129 0
-10 -129 0
133 44 0
-133 -44 0
13 23 0
-13 -23 0
8 85 0
-8 -85 0
103 126 0
-103 -126 0
53 130 0
-53 -130 0
135 73 0
-135 -73 0
64 79 0
-64 -79 0
24 65 0
-24 -65 0
134 74 0
-134 -74 0
30 68 0
-30 -68 0
7 100 0
-7 -100 0
86 88 0
-86 -88 0
59 71 0
-59 -71 0
21 78 0
-21 -78 0
129 12 0
-129 -12 0
90 54 0
-90 -54 0
43 102 0
-43 -102 0
16 35 0
-16 -35 0
27 111 0
-27 -111 0
24 52 0
-24 -52 0
107 68 0
-107 -68 0
6 40 0
-6 -40 0
11 36 0
-11 -36 0
7 103 0
-7 -103 0
84 119 0
-84 -119 0
36 137 0
-36 -137 0
24 51 0
-24 -51 0
20 133 0
-20 -133 0
49 61 0
-49 -61 0
130 137 0
-130 -137 0
53 122 0
-53 -122 0
114 50 0
-114 -50 0
64 87 0
-64 -87 0
109 48 0
-109 -48 0
36 113 0
-36 -113 0
42 73 0
-42 -73 0
79 117 0
-79 -117 0
129 133 0
-129 -133 0
13 12 0
-13 -12 0
39 42 0
-39 -42 0
28 103 0
-28 -103 0
51 71 0
-51 -71 0
11 87 0
-11 -87 0
18 12 0
-18 -12 0
7 29 0
-7 -29 0
108 120 0
-108 -120 0
75 126 0
-75 -126 0
25 41 0
-25 -41 0
30 41 0
-30 -41 0
116 48 0
-116 -48 0
118 35 0
-118 -35 0
11 106 0
-11 -106 0
30 45 0
-30 -45 0
118 63 0
-118 -63 0
16 50 0
-16 -50 0
114 98 0
-114 -98 0
43 131 0
-43 -131 0
124 83 0
-124 -83 0
4 131 0
-4 -131 0
53 44 0
-53 -44 0
7 63 0
-7 -63 0
107 92 0
-107 -92 0
66 78 0
-66 -78 0
2 62 0
-2 -62 0
86 109 0
-86 -109 0
26 101 0
-26 -101 0
119 130 0
-119 -130 0
133 126 0
-133 -126 0
60 29 0
-60 -29 0
89 49 0
-89 -49 0
5 132 0
-5 -132 0
125 15 0
-125 -15 0
119 133 0
-119 -133 0
14 41 0
-14 -41 0
108 17 0
-108 -17 0
58 90 0
-58 -90 0
29 22 0
-29 -22 0
114 106 0
-114 -106 0
61 67 0
-61 -67 0
16 135 0
-16 -135 0
65 48 0
-65 -48 0
106 126 0
-106 -126 0
137 17 0
-137 -17 0
87 67 0
-87 -67 0
84 73 0
-84 -73 0
19 9 0
-19 -9 0
1 97 0
-1 -97 0
94 88 0
-94 -88 0
139 6 0
-139 -6 0
75 122 0
-75 -122 0
53 99 0
-53 -99 0
20 62 0
-20 -62 0
4 101 0
-4 -101 0
46 99 0
-46 -99 0
107 39 0
-107 -39 0
30 90 0
-30 -90 0
27 17 0
-27 -17 0
29 139 0
-29 -139 0
40 104 0
-40 -104 0
125 74 0
-125 -74 0
45 44 0
-45 -44 0
79 21 0
-79 -21 0
51 40 0
-51 -40 0
28 50 0
-28 -50 0
123 120 0
-123 -120 0
80 118 0
-80 -118 0
80 127 0
-80 -127 0
76 109 0
-76 -109 0
140 105 0
-140 -105 0
138 23 0
-138 -23 0
14 73 0
-14 -73 0
27 81 0
-27 -81 0
104 54 0
-104 -54 0
43 27 0
-43 -27 0
26 91 0
-26 -91 0
14 117 0
-14 -117 0
26 126 0
-26 -126 0
58 44 0
-58 -44 0
72 61 0
-72 -61 0
106 123 0
-106 -123 0
56 77 0
-56 -77 0
56 51 0
-56 -51 0
56 136 0
-56 -136 0
114 39 0
-114 -39 0
32 111 0
-32 -111 0
66 126 0
-66 -126 0
134 83 0
-134 -83 0
94 120 0
-94 -120 0
84 13 0
-84 -13 0
25 103 0
-25 -103 0
22 62 0
-22 -62 0
33 125 0
-33 -125 0
99 126 0
-99 -126 0
124 74 0
-124 -74 0
32 104 0
-32 -104 0
135 77 0
-135 -77 0
89 87 0
-89 -87 0
16 41 0
-16 -41 0
138 38 0
-138 -38 0
1 87 0
-1 -87 0
51 120 0
-51 -120 0
110 85 0
-110 -85 0
138 71 0
-138 -71 0
56 135 0
-56 -135 0
57 83 0
-57 -83 0
108 127 0
-108 -127 0
115 74 0
-115 -74 0
86 81 0
-86 -81 0
43 32 0
-43 -32 0
108 79 0
-108 -79 0
123 83 0
-123 -83 0
121 117 0
-121 -117 0
47 126 0
-47 -126 0
82 54 0
-82 -54 0
86 42 0
-86 -42 0
128 15 0
-128 -15 0
106 127 0
-106 -127 0
7 71 0
-7 -71 0
114 40 0
-114 -40 0
69 12 0
-69 -12 0
25 71 0
-25 -71 0
